1738.0 21575.0 
1684.0 21716.0 
1738.0 21575.0 
1774.0 21436.0 
1686.0 21660.0 
1669.0 22220.0 
1727.0 21618.0 
1725.0 21645.0 
1654.0 22976.0 
1768.0 21492.0 
1639.0 23043.0 
1774.0 21436.0 
1739.0 21523.0 
1774.0 21436.0 
1674.0 21719.0 
1656.0 22933.0 
1672.0 21866.0 
